
ASes= { 1, 2, 3, 4, 5, 6, 7, 8, 9, 10, 11 } ;


Objects= { 1, 2, 3, 4, 5, 6, 7, 8, 9, 10, 11, 12, 13, 14, 15, 16, 17, 18, 19, 20, 21, 22, 23, 24, 25, 26, 27, 28, 29, 30, 31, 32, 33, 34, 35, 36, 37, 38, 39, 40, 41, 42, 43, 44, 45, 46, 47, 48, 49, 50, 51, 52, 53, 54, 55, 56, 57, 58, 59, 60, 61, 62, 63, 64, 65, 66, 67, 68, 69, 70, 71, 72, 73, 74, 75, 76, 77, 78, 79, 80, 81, 82, 83, 84, 85, 86, 87, 88, 89, 90, 91, 92, 93, 94, 95, 96, 97, 98, 99, 100 } ;


QualityLevels= { 0, 1, 2, 3, 4, 5 } ;

Arcs = {<2,1,490000>, <1,2,490000>, <11,1,490000>, <1,11,490000>, <11,2,490000>, <2,11,490000>, <11,10,490000>, <10,11,490000>, <3,2,490000>, <2,3,490000>, <4,3,490000>, <3,4,490000>, <5,4,490000>, <4,5,490000>, <6,5,490000>, <5,6,490000>, <7,6,490000>, <6,7,490000>, <8,4,490000>, <4,8,490000>, <8,7,490000>, <7,8,490000>, <9,3,490000>, <3,9,490000>, <9,8,490000>, <8,9,490000>, <10,9,490000>, <9,10,490000>};


RatePerQuality= [ 0  300  700  1500  2500  3500 ] ;


CacheSpacePerQuality= [ 10000  11.25  26.25  56.25  93.75  131.25 ] ;


UtilityPerQuality= [ 0  0.2  0.4  0.6  0.8  1 ] ;


ObjectsPublishedByProducers=[ [ 0  0  0  0  0  0  0  1  0  0  0 ]  [ 0  0  0  0  0  0  0  1  0  0  0 ]  [ 0  0  0  0  0  0  0  1  0  0  0 ]  [ 0  0  0  0  0  0  0  1  0  0  0 ]  [ 0  0  0  0  0  0  0  1  0  0  0 ]  [ 0  0  0  0  0  0  0  1  0  0  0 ]  [ 0  0  0  0  0  0  0  1  0  0  0 ]  [ 0  0  0  0  0  0  0  1  0  0  0 ]  [ 0  0  0  0  0  0  0  1  0  0  0 ]  [ 0  0  0  0  0  0  0  1  0  0  0 ]  [ 0  0  0  0  0  0  0  1  0  0  0 ]  [ 0  0  0  0  0  0  0  1  0  0  0 ]  [ 0  0  0  0  0  0  0  1  0  0  0 ]  [ 0  0  0  0  0  0  0  1  0  0  0 ]  [ 0  0  0  0  0  0  0  1  0  0  0 ]  [ 0  0  0  0  0  0  0  1  0  0  0 ]  [ 0  0  0  0  0  0  0  1  0  0  0 ]  [ 0  0  0  0  0  0  0  1  0  0  0 ]  [ 0  0  0  0  0  0  0  1  0  0  0 ]  [ 0  0  0  0  0  0  0  1  0  0  0 ]  [ 0  0  0  0  0  0  0  1  0  0  0 ]  [ 0  0  0  0  0  0  0  1  0  0  0 ]  [ 0  0  0  0  0  0  0  1  0  0  0 ]  [ 0  0  0  0  0  0  0  1  0  0  0 ]  [ 0  0  0  0  0  0  0  1  0  0  0 ]  [ 0  0  0  0  0  0  0  1  0  0  0 ]  [ 0  0  0  0  0  0  0  1  0  0  0 ]  [ 0  0  0  0  0  0  0  1  0  0  0 ]  [ 0  0  0  0  0  0  0  1  0  0  0 ]  [ 0  0  0  0  0  0  0  1  0  0  0 ]  [ 0  0  0  0  0  0  0  1  0  0  0 ]  [ 0  0  0  0  0  0  0  1  0  0  0 ]  [ 0  0  0  0  0  0  0  1  0  0  0 ]  [ 0  0  0  0  0  0  0  1  0  0  0 ]  [ 0  0  0  0  0  0  0  1  0  0  0 ]  [ 0  0  0  0  0  0  0  1  0  0  0 ]  [ 0  0  0  0  0  0  0  1  0  0  0 ]  [ 0  0  0  0  0  0  0  1  0  0  0 ]  [ 0  0  0  0  0  0  0  1  0  0  0 ]  [ 0  0  0  0  0  0  0  1  0  0  0 ]  [ 0  0  0  0  0  0  0  1  0  0  0 ]  [ 0  0  0  0  0  0  0  1  0  0  0 ]  [ 0  0  0  0  0  0  0  1  0  0  0 ]  [ 0  0  0  0  0  0  0  1  0  0  0 ]  [ 0  0  0  0  0  0  0  1  0  0  0 ]  [ 0  0  0  0  0  0  0  1  0  0  0 ]  [ 0  0  0  0  0  0  0  1  0  0  0 ]  [ 0  0  0  0  0  0  0  1  0  0  0 ]  [ 0  0  0  0  0  0  0  1  0  0  0 ]  [ 0  0  0  0  0  0  0  1  0  0  0 ]  [ 0  0  0  0  0  0  0  1  0  0  0 ]  [ 0  0  0  0  0  0  0  1  0  0  0 ]  [ 0  0  0  0  0  0  0  1  0  0  0 ]  [ 0  0  0  0  0  0  0  1  0  0  0 ]  [ 0  0  0  0  0  0  0  1  0  0  0 ]  [ 0  0  0  0  0  0  0  1  0  0  0 ]  [ 0  0  0  0  0  0  0  1  0  0  0 ]  [ 0  0  0  0  0  0  0  1  0  0  0 ]  [ 0  0  0  0  0  0  0  1  0  0  0 ]  [ 0  0  0  0  0  0  0  1  0  0  0 ]  [ 0  0  0  0  0  0  0  1  0  0  0 ]  [ 0  0  0  0  0  0  0  1  0  0  0 ]  [ 0  0  0  0  0  0  0  1  0  0  0 ]  [ 0  0  0  0  0  0  0  1  0  0  0 ]  [ 0  0  0  0  0  0  0  1  0  0  0 ]  [ 0  0  0  0  0  0  0  1  0  0  0 ]  [ 0  0  0  0  0  0  0  1  0  0  0 ]  [ 0  0  0  0  0  0  0  1  0  0  0 ]  [ 0  0  0  0  0  0  0  1  0  0  0 ]  [ 0  0  0  0  0  0  0  1  0  0  0 ]  [ 0  0  0  0  0  0  0  1  0  0  0 ]  [ 0  0  0  0  0  0  0  1  0  0  0 ]  [ 0  0  0  0  0  0  0  1  0  0  0 ]  [ 0  0  0  0  0  0  0  1  0  0  0 ]  [ 0  0  0  0  0  0  0  1  0  0  0 ]  [ 0  0  0  0  0  0  0  1  0  0  0 ]  [ 0  0  0  0  0  0  0  1  0  0  0 ]  [ 0  0  0  0  0  0  0  1  0  0  0 ]  [ 0  0  0  0  0  0  0  1  0  0  0 ]  [ 0  0  0  0  0  0  0  1  0  0  0 ]  [ 0  0  0  0  0  0  0  1  0  0  0 ]  [ 0  0  0  0  0  0  0  1  0  0  0 ]  [ 0  0  0  0  0  0  0  1  0  0  0 ]  [ 0  0  0  0  0  0  0  1  0  0  0 ]  [ 0  0  0  0  0  0  0  1  0  0  0 ]  [ 0  0  0  0  0  0  0  1  0  0  0 ]  [ 0  0  0  0  0  0  0  1  0  0  0 ]  [ 0  0  0  0  0  0  0  1  0  0  0 ]  [ 0  0  0  0  0  0  0  1  0  0  0 ]  [ 0  0  0  0  0  0  0  1  0  0  0 ]  [ 0  0  0  0  0  0  0  1  0  0  0 ]  [ 0  0  0  0  0  0  0  1  0  0  0 ]  [ 0  0  0  0  0  0  0  1  0  0  0 ]  [ 0  0  0  0  0  0  0  1  0  0  0 ]  [ 0  0  0  0  0  0  0  1  0  0  0 ]  [ 0  0  0  0  0  0  0  1  0  0  0 ]  [ 0  0  0  0  0  0  0  1  0  0  0 ]  [ 0  0  0  0  0  0  0  1  0  0  0 ]  [ 0  0  0  0  0  0  0  1  0  0  0 ]  [ 0  0  0  0  0  0  0  1  0  0  0 ] ];

ObjRequests = {  <1,5,174>, <2,5,262>, <3,5,5>, <4,5,53>, <5,5,96>, <6,5,1>, <7,5,57>, <8,5,16>, <9,5,1>, <10,5,134>, <11,5,32>, <12,5,42>, <13,5,15>, <14,5,34>, <15,5,24>, <16,5,73>, <17,5,35>, <18,5,69>, <19,5,45>, <20,5,57>, <21,5,43>, <22,5,1>, <23,5,18>, <24,5,36>, <25,5,25>, <26,5,24>, <27,5,14>, <28,5,13>, <29,5,10>, <30,5,3>, <31,5,15>, <32,5,2>, <33,5,5>, <34,5,3>, <35,5,5>, <36,5,15>, <37,5,6>, <38,5,7>, <39,5,17>, <40,5,9>, <41,5,3>, <42,5,22>, <43,5,2>, <44,5,17>, <45,5,23>, <46,5,12>, <47,5,7>, <48,5,13>, <49,5,1>, <50,5,2>, <51,5,16>, <52,5,1>, <53,5,19>, <54,5,15>, <55,5,17>, <56,5,12>, <57,5,2>, <58,5,18>, <59,5,2>, <60,5,8>, <62,5,2>, <64,5,2>, <65,5,17>, <66,5,18>, <67,5,17>, <68,5,7>, <69,5,11>, <70,5,1>, <71,5,16>, <72,5,8>, <73,5,2>, <74,5,8>, <75,5,1>, <76,5,2>, <77,5,2>, <78,5,6>, <80,5,2>, <81,5,18>, <83,5,4>, <84,5,3>, <85,5,11>, <86,5,2>, <87,5,4>, <88,5,1>, <89,5,11>, <90,5,3>, <92,5,3>, <93,5,3>, <94,5,4>, <95,5,6>, <96,5,3>, <97,5,3>, <99,5,1>, <100,5,9>, <1,6,1293>, <2,6,4>, <3,6,11>, <4,6,5>, <5,6,101>, <6,6,111>, <7,6,150>, <8,6,148>, <9,6,51>, <10,6,12>, <11,6,11>, <12,6,84>, <13,6,7>, <14,6,80>, <15,6,19>, <16,6,13>, <17,6,15>, <18,6,32>, <19,6,36>, <20,6,27>, <21,6,3>, <22,6,32>, <23,6,44>, <24,6,3>, <25,6,10>, <26,6,25>, <27,6,26>, <28,6,17>, <29,6,32>, <30,6,13>, <31,6,33>, <32,6,4>, <33,6,25>, <34,6,32>, <35,6,25>, <37,6,24>, <38,6,1>, <39,6,8>, <40,6,11>, <41,6,11>, <42,6,7>, <43,6,2>, <44,6,4>, <45,6,6>, <46,6,12>, <47,6,14>, <48,6,2>, <49,6,12>, <51,6,12>, <52,6,25>, <53,6,1>, <54,6,9>, <55,6,7>, <56,6,13>, <57,6,20>, <58,6,12>, <59,6,22>, <60,6,2>, <61,6,17>, <62,6,7>, <63,6,1>, <64,6,7>, <65,6,2>, <66,6,2>, <67,6,5>, <69,6,10>, <70,6,5>, <72,6,8>, <73,6,3>, <74,6,15>, <75,6,3>, <76,6,22>, <77,6,13>, <78,6,15>, <79,6,15>, <80,6,4>, <81,6,5>, <82,6,4>, <83,6,2>, <84,6,6>, <85,6,3>, <86,6,5>, <87,6,2>, <88,6,19>, <90,6,3>, <91,6,4>, <92,6,1>, <93,6,14>, <94,6,3>, <95,6,6>, <96,6,5>, <97,6,8>, <98,6,3>, <99,6,7>, <100,6,2>, <1,7,669>, <2,7,70>, <3,7,223>, <4,7,2>, <5,7,1>, <6,7,85>, <7,7,14>, <8,7,6>, <9,7,133>, <10,7,10>, <11,7,40>, <12,7,35>, <13,7,92>, <14,7,38>, <15,7,65>, <16,7,28>, <17,7,20>, <19,7,32>, <20,7,9>, <21,7,29>, <22,7,41>, <23,7,1>, <24,7,40>, <25,7,2>, <26,7,4>, <27,7,33>, <28,7,48>, <29,7,2>, <30,7,39>, <31,7,12>, <32,7,31>, <33,7,11>, <34,7,2>, <35,7,10>, <36,7,12>, <37,7,10>, <38,7,10>, <39,7,13>, <40,7,9>, <41,7,1>, <42,7,4>, <43,7,29>, <44,7,1>, <45,7,3>, <46,7,11>, <47,7,5>, <48,7,8>, <49,7,9>, <50,7,23>, <51,7,19>, <52,7,7>, <53,7,17>, <54,7,4>, <55,7,5>, <56,7,7>, <57,7,12>, <58,7,6>, <59,7,3>, <60,7,5>, <61,7,13>, <63,7,1>, <64,7,16>, <65,7,18>, <66,7,7>, <68,7,6>, <69,7,6>, <70,7,31>, <71,7,12>, <72,7,4>, <73,7,1>, <74,7,6>, <75,7,4>, <76,7,4>, <77,7,1>, <78,7,3>, <79,7,2>, <80,7,2>, <81,7,3>, <82,7,8>, <83,7,8>, <84,7,13>, <85,7,11>, <86,7,7>, <87,7,10>, <88,7,2>, <89,7,7>, <90,7,7>, <91,7,6>, <92,7,16>, <93,7,9>, <94,7,9>, <95,7,1>, <96,7,2>, <97,7,4>, <98,7,13>, <99,7,2>, <100,7,13>, <1,1,103>, <2,1,108>, <3,1,367>, <4,1,545>, <5,1,223>, <6,1,41>, <7,1,16>, <8,1,107>, <9,1,86>, <10,1,35>, <11,1,34>, <12,1,34>, <13,1,64>, <14,1,3>, <15,1,4>, <16,1,12>, <17,1,29>, <18,1,1>, <19,1,3>, <20,1,7>, <21,1,31>, <22,1,1>, <23,1,36>, <24,1,12>, <25,1,50>, <26,1,11>, <27,1,18>, <28,1,1>, <29,1,9>, <30,1,10>, <31,1,15>, <32,1,8>, <33,1,4>, <34,1,6>, <35,1,3>, <36,1,16>, <37,1,5>, <38,1,17>, <39,1,17>, <40,1,7>, <41,1,46>, <42,1,16>, <43,1,24>, <44,1,8>, <45,1,19>, <46,1,7>, <47,1,1>, <48,1,18>, <49,1,14>, <50,1,22>, <51,1,2>, <52,1,6>, <53,1,1>, <54,1,9>, <55,1,4>, <56,1,8>, <57,1,3>, <58,1,8>, <59,1,11>, <60,1,7>, <61,1,4>, <62,1,29>, <63,1,4>, <64,1,4>, <65,1,1>, <67,1,2>, <68,1,20>, <69,1,8>, <70,1,14>, <71,1,8>, <72,1,1>, <73,1,1>, <74,1,7>, <75,1,11>, <77,1,5>, <78,1,2>, <79,1,2>, <80,1,18>, <81,1,2>, <82,1,9>, <83,1,1>, <84,1,1>, <86,1,8>, <87,1,8>, <88,1,6>, <90,1,2>, <91,1,14>, <92,1,2>, <93,1,7>, <94,1,2>, <95,1,6>, <97,1,2>, <98,1,3>, <99,1,2>, <100,1,5>, <1,10,118>, <2,10,779>, <3,10,182>, <4,10,4>, <5,10,61>, <6,10,139>, <7,10,107>, <8,10,34>, <9,10,3>, <10,10,18>, <11,10,101>, <12,10,17>, <13,10,10>, <14,10,6>, <15,10,35>, <16,10,12>, <17,10,46>, <18,10,24>, <20,10,10>, <21,10,6>, <22,10,23>, <23,10,5>, <24,10,10>, <25,10,4>, <26,10,33>, <27,10,3>, <28,10,2>, <29,10,27>, <30,10,9>, <31,10,8>, <32,10,30>, <33,10,22>, <34,10,19>, <35,10,14>, <36,10,12>, <37,10,6>, <38,10,18>, <39,10,6>, <40,10,14>, <41,10,18>, <42,10,5>, <43,10,9>, <44,10,13>, <45,10,8>, <46,10,13>, <47,10,11>, <48,10,7>, <49,10,14>, <50,10,6>, <51,10,3>, <52,10,8>, <53,10,1>, <54,10,9>, <55,10,11>, <57,10,2>, <58,10,5>, <59,10,3>, <60,10,6>, <61,10,10>, <63,10,31>, <64,10,7>, <65,10,3>, <66,10,8>, <67,10,5>, <68,10,3>, <70,10,2>, <71,10,3>, <72,10,10>, <73,10,21>, <74,10,1>, <76,10,1>, <77,10,6>, <78,10,4>, <79,10,1>, <80,10,1>, <83,10,5>, <84,10,3>, <85,10,6>, <86,10,4>, <87,10,5>, <88,10,5>, <89,10,3>, <90,10,16>, <91,10,3>, <92,10,10>, <93,10,2>, <94,10,5>, <95,10,9>, <96,10,2>, <97,10,8>, <98,10,3>, <99,10,10>, <100,10,1> };

MaxCacheStorageAtSingleAS= [ 131.25  131.25  131.25  131.25  131.25  131.25  131.25  131.25  131.25  131.25  131.25 ] ;

MaxCacheStorage = 1443.75 ;
SolutionGap = 0.01 ;
